
Gurobi 9.5.0 (mac64[x86]) logging started Tue  2 Aug 13:30:44 2022

Set parameter LogFile to value "/Users/nikitabelyak/Dropbox (Aalto)/TSEP/Nordic_case_study/2022 data/optimisation_results/02_Aug_2022_13_30_44.log"
Set parameter Threads to value 6
